num_bp = 1;
nres = 90;
ncoup = 9;
nhosp = 9;
max_rpref_len = 20;
max_hpref_len = 57;
rpref = [|3,8,3,8,9,0,0,0,0,0,0,0,0,0,0,0,0,0,0,0,0
     |4,4,9,9,4,0,0,0,0,0,0,0,0,0,0,0,0,0,0,0,0
     |9,9,8,8,9,7,7,0,0,0,0,0,0,0,0,0,0,0,0,0,0
     |8,4,8,4,6,8,4,0,0,0,0,0,0,0,0,0,0,0,0,0,0
     |4,4,8,8,4,8,6,6,6,0,0,0,0,0,0,0,0,0,0,0,0
     |9,8,9,8,3,3,9,8,3,0,0,0,0,0,0,0,0,0,0,0,0
     |8,7,8,9,7,9,8,7,9,0,0,0,0,0,0,0,0,0,0,0,0
     |7,7,1,7,1,1,5,5,5,0,0,0,0,0,0,0,0,0,0,0,0
     |7,9,7,9,8,8,7,4,9,8,4,4,7,9,3,3,8,4,3,3,0
     |9,9,8,8,9,8,5,9,5,5,8,5,7,7,9,8,7,7,5,7,0
     |1,9,1,9,5,1,9,5,5,7,7,7,1,6,6,9,5,6,7,6,0
     |9,9,8,8,9,2,2,8,2,9,8,2,7,9,8,7,7,2,7,7,0
     |8,2,8,2,7,8,2,7,7,0,0,0,0,0,0,0,0,0,0,0,0
     |8,8,4,4,8,6,6,4,6,0,0,0,0,0,0,0,0,0,0,0,0
     |9,9,7,7,8,9,7,8,8,6,6,6,3,3,3,0,0,0,0,0,0
     |3,8,3,8,3,7,7,8,7,3,8,7,3,8,7,0,0,0,0,0,0
     |6,6,6,8,8,8,6,8,0,0,0,0,0,0,0,0,0,0,0,0,0
     |5,9,1,5,9,1,8,8,0,0,0,0,0,0,0,0,0,0,0,0,0
     |6,9,1,0,0,0,0,0,0,0,0,0,0,0,0,0,0,0,0,0,0
     |2,9,3,6,4,0,0,0,0,0,0,0,0,0,0,0,0,0,0,0,0
     |1,2,0,0,0,0,0,0,0,0,0,0,0,0,0,0,0,0,0,0,0
     |7,1,8,0,0,0,0,0,0,0,0,0,0,0,0,0,0,0,0,0,0
     |9,8,5,2,0,0,0,0,0,0,0,0,0,0,0,0,0,0,0,0,0
     |4,8,9,6,0,0,0,0,0,0,0,0,0,0,0,0,0,0,0,0,0
     |9,5,4,8,7,0,0,0,0,0,0,0,0,0,0,0,0,0,0,0,0
     |8,9,7,1,0,0,0,0,0,0,0,0,0,0,0,0,0,0,0,0,0
     |7,3,2,0,0,0,0,0,0,0,0,0,0,0,0,0,0,0,0,0,0
     |7,9,8,6,2,0,0,0,0,0,0,0,0,0,0,0,0,0,0,0,0
     |6,3,8,0,0,0,0,0,0,0,0,0,0,0,0,0,0,0,0,0,0
     |8,1,6,0,0,0,0,0,0,0,0,0,0,0,0,0,0,0,0,0,0
     |7,3,5,6,0,0,0,0,0,0,0,0,0,0,0,0,0,0,0,0,0
     |4,7,3,2,0,0,0,0,0,0,0,0,0,0,0,0,0,0,0,0,0
     |3,8,9,5,0,0,0,0,0,0,0,0,0,0,0,0,0,0,0,0,0
     |9,5,8,0,0,0,0,0,0,0,0,0,0,0,0,0,0,0,0,0,0
     |3,9,7,0,0,0,0,0,0,0,0,0,0,0,0,0,0,0,0,0,0
     |4,9,5,7,2,0,0,0,0,0,0,0,0,0,0,0,0,0,0,0,0
     |8,9,7,0,0,0,0,0,0,0,0,0,0,0,0,0,0,0,0,0,0
     |6,9,3,2,0,0,0,0,0,0,0,0,0,0,0,0,0,0,0,0,0
     |6,8,7,0,0,0,0,0,0,0,0,0,0,0,0,0,0,0,0,0,0
     |6,3,0,0,0,0,0,0,0,0,0,0,0,0,0,0,0,0,0,0,0
     |8,5,4,0,0,0,0,0,0,0,0,0,0,0,0,0,0,0,0,0,0
     |4,2,1,0,0,0,0,0,0,0,0,0,0,0,0,0,0,0,0,0,0
     |6,8,0,0,0,0,0,0,0,0,0,0,0,0,0,0,0,0,0,0,0
     |3,6,8,9,0,0,0,0,0,0,0,0,0,0,0,0,0,0,0,0,0
     |9,8,6,0,0,0,0,0,0,0,0,0,0,0,0,0,0,0,0,0,0
     |9,8,5,0,0,0,0,0,0,0,0,0,0,0,0,0,0,0,0,0,0
     |5,6,2,8,9,0,0,0,0,0,0,0,0,0,0,0,0,0,0,0,0
     |7,6,2,0,0,0,0,0,0,0,0,0,0,0,0,0,0,0,0,0,0
     |3,9,8,0,0,0,0,0,0,0,0,0,0,0,0,0,0,0,0,0,0
     |8,4,9,0,0,0,0,0,0,0,0,0,0,0,0,0,0,0,0,0,0
     |9,8,2,6,0,0,0,0,0,0,0,0,0,0,0,0,0,0,0,0,0
     |9,7,0,0,0,0,0,0,0,0,0,0,0,0,0,0,0,0,0,0,0
     |8,9,6,4,5,0,0,0,0,0,0,0,0,0,0,0,0,0,0,0,0
     |8,7,0,0,0,0,0,0,0,0,0,0,0,0,0,0,0,0,0,0,0
     |5,9,6,8,0,0,0,0,0,0,0,0,0,0,0,0,0,0,0,0,0
     |8,6,0,0,0,0,0,0,0,0,0,0,0,0,0,0,0,0,0,0,0
     |3,6,5,0,0,0,0,0,0,0,0,0,0,0,0,0,0,0,0,0,0
     |7,9,0,0,0,0,0,0,0,0,0,0,0,0,0,0,0,0,0,0,0
     |6,7,5,0,0,0,0,0,0,0,0,0,0,0,0,0,0,0,0,0,0
     |7,9,8,2,3,0,0,0,0,0,0,0,0,0,0,0,0,0,0,0,0
     |5,6,0,0,0,0,0,0,0,0,0,0,0,0,0,0,0,0,0,0,0
     |6,4,8,0,0,0,0,0,0,0,0,0,0,0,0,0,0,0,0,0,0
     |3,6,8,4,9,0,0,0,0,0,0,0,0,0,0,0,0,0,0,0,0
     |9,6,1,0,0,0,0,0,0,0,0,0,0,0,0,0,0,0,0,0,0
     |8,5,6,1,3,0,0,0,0,0,0,0,0,0,0,0,0,0,0,0,0
     |9,8,5,6,0,0,0,0,0,0,0,0,0,0,0,0,0,0,0,0,0
     |3,7,8,4,0,0,0,0,0,0,0,0,0,0,0,0,0,0,0,0,0
     |2,8,9,5,7,0,0,0,0,0,0,0,0,0,0,0,0,0,0,0,0
     |6,1,8,9,0,0,0,0,0,0,0,0,0,0,0,0,0,0,0,0,0
     |4,6,9,0,0,0,0,0,0,0,0,0,0,0,0,0,0,0,0,0,0
     |5,3,8,0,0,0,0,0,0,0,0,0,0,0,0,0,0,0,0,0,0
     |5,4,6,0,0,0,0,0,0,0,0,0,0,0,0,0,0,0,0,0,0
     |1,7,8,9,2,0,0,0,0,0,0,0,0,0,0,0,0,0,0,0,0
     |7,3,5,0,0,0,0,0,0,0,0,0,0,0,0,0,0,0,0,0,0
     |6,8,5,0,0,0,0,0,0,0,0,0,0,0,0,0,0,0,0,0,0
     |6,7,8,9,0,0,0,0,0,0,0,0,0,0,0,0,0,0,0,0,0
     |3,1,9,5,0,0,0,0,0,0,0,0,0,0,0,0,0,0,0,0,0
     |4,9,7,1,0,0,0,0,0,0,0,0,0,0,0,0,0,0,0,0,0
     |7,6,4,2,8,0,0,0,0,0,0,0,0,0,0,0,0,0,0,0,0
     |2,3,6,9,0,0,0,0,0,0,0,0,0,0,0,0,0,0,0,0,0
     |3,5,0,0,0,0,0,0,0,0,0,0,0,0,0,0,0,0,0,0,0
     |7,6,3,8,9,0,0,0,0,0,0,0,0,0,0,0,0,0,0,0,0
     |7,1,5,0,0,0,0,0,0,0,0,0,0,0,0,0,0,0,0,0,0
     |9,3,0,0,0,0,0,0,0,0,0,0,0,0,0,0,0,0,0,0,0
     |9,6,7,0,0,0,0,0,0,0,0,0,0,0,0,0,0,0,0,0,0
     |8,3,0,0,0,0,0,0,0,0,0,0,0,0,0,0,0,0,0,0,0
     |8,2,6,0,0,0,0,0,0,0,0,0,0,0,0,0,0,0,0,0,0
     |9,8,5,2,0,0,0,0,0,0,0,0,0,0,0,0,0,0,0,0,0
     |4,5,9,2,6,0,0,0,0,0,0,0,0,0,0,0,0,0,0,0,0
     |1,9,7,0,0,0,0,0,0,0,0,0,0,0,0,0,0,0,0,0,0|];
rpref_len = [5,5,7,7,9,9,9,9,20,20,20,20,9,9,15,15,8,8,3,5,2,3,4,4,5,4,3,5,3,3,4,4,4,3,3,5,3,4,3,2,3,3,2,4,3,3,5,3,3,3,4,2,5,2,4,2,3,2,3,5,2,3,5,3,5,4,4,5,4,3,3,3,5,3,3,4,4,4,5,4,2,5,3,2,3,2,3,4,5,3];
hpref = [|11,42,8,19,30,83,18,65,73,26,64,77,90,22,78,69,21,0,0,0,0,0,0,0,0,0,0,0,0,0,0,0,0,0,0,0,0,0,0,0,0,0,0,0,0,0,0,0,0,0,0,0,0,0,0,0,0
     |73,13,42,68,36,21,38,80,28,79,32,20,60,47,48,51,23,27,87,12,89,88,0,0,0,0,0,0,0,0,0,0,0,0,0,0,0,0,0,0,0,0,0,0,0,0,0,0,0,0,0,0,0,0,0,0,0
     |33,6,60,49,82,81,71,29,38,9,16,35,67,84,20,31,32,65,77,15,44,74,1,80,27,63,86,57,40,0,0,0,0,0,0,0,0,0,0,0,0,0,0,0,0,0,0,0,0,0,0,0,0,0,0,0,0
     |62,67,53,4,2,41,79,20,14,5,89,32,36,50,25,70,72,78,63,9,42,24,0,0,0,0,0,0,0,0,0,0,0,0,0,0,0,0,0,0,0,0,0,0,0,0,0,0,0,0,0,0,0,0,0,0,0
     |83,74,81,61,77,25,18,59,10,65,47,8,11,36,89,41,53,75,88,57,31,72,23,33,66,68,34,46,71,55,0,0,0,0,0,0,0,0,0,0,0,0,0,0,0,0,0,0,0,0,0,0,0,0,0,0,0
     |48,66,47,59,69,43,61,80,28,72,56,57,87,31,30,11,89,85,79,63,51,76,17,4,29,75,70,15,38,20,65,14,44,55,5,62,19,39,24,82,53,45,40,64,0,0,0,0,0,0,0,0,0,0,0,0,0
     |22,58,54,74,8,31,52,3,35,78,90,60,36,16,85,15,32,37,26,27,79,39,67,11,9,82,13,59,28,10,12,83,25,68,7,76,73,48,0,0,0,0,0,0,0,0,0,0,0,0,0,0,0,0,0,0,0
     |29,44,14,9,16,39,18,1,12,63,5,60,22,54,56,33,82,3,37,62,68,4,6,25,23,13,49,26,28,79,53,73,15,75,34,47,10,69,30,67,87,55,88,7,50,71,86,17,46,66,45,76,51,65,43,41,24
     |52,89,19,58,76,69,3,63,26,1,34,84,37,35,73,33,44,15,49,25,23,7,78,50,77,2,82,90,11,12,28,6,70,51,60,24,64,88,55,20,53,18,9,47,46,45,10,68,38,66,36,80,85,0,0,0,0|];
hpref_len = [17,22,29,22,30,44,38,57,53];
hrank = [|0,0,0,0,0,0,0,3,0,0,1,0,0,0,0,0,0,7,4,0,17,14,0,0,0,10,0,0,0,5,0,0,0,0,0,0,0,0,0,0,0,2,0,0,0,0,0,0,0,0,0,0,0,0,0,0,0,0,0,0,0,0,0,11,8,0,0,0,16,0,0,0,9,0,0,0,12,15,0,0,0,0,6,0,0,0,0,0,0,13
     |0,0,0,0,0,0,0,0,0,0,0,20,2,0,0,0,0,0,0,12,6,0,17,0,0,0,18,9,0,0,0,11,0,0,0,5,0,7,0,0,0,3,0,0,0,0,14,15,0,0,16,0,0,0,0,0,0,0,0,13,0,0,0,0,0,0,0,4,0,0,0,0,1,0,0,0,0,0,10,8,0,0,0,0,0,0,19,22,21,0
     |23,0,0,0,0,2,0,0,10,0,0,0,0,0,20,11,0,0,0,15,0,0,0,0,0,0,25,0,8,0,16,17,1,0,12,0,0,9,0,29,0,0,0,21,0,0,0,0,4,0,0,0,0,0,0,0,28,0,0,3,0,0,26,0,18,0,13,0,0,0,7,0,0,22,0,0,19,0,0,24,6,5,0,14,0,27,0,0,0,0
     |0,5,0,4,10,0,0,0,20,0,0,0,0,9,0,0,0,0,0,8,0,0,0,22,15,0,0,0,0,0,0,12,0,0,0,13,0,0,0,0,6,21,0,0,0,0,0,0,0,14,0,0,3,0,0,0,0,0,0,0,0,1,19,0,0,0,2,0,0,16,0,17,0,0,0,0,0,18,7,0,0,0,0,0,0,0,0,0,11,0
     |0,0,0,0,0,0,0,12,0,9,13,0,0,0,0,0,0,7,0,0,0,0,23,0,6,0,0,0,0,0,21,0,24,27,0,14,0,0,0,0,16,0,0,0,0,28,11,0,0,0,0,0,17,0,30,0,20,0,8,0,4,0,0,0,10,25,0,26,0,0,29,22,0,2,18,0,5,0,0,0,3,0,1,0,0,0,0,19,15,0
     |0,0,0,24,35,0,0,0,0,0,16,0,0,32,28,0,23,0,37,30,0,0,0,39,0,0,0,9,25,15,14,0,0,0,0,0,0,29,38,43,0,0,6,33,42,0,3,1,0,0,21,0,41,0,34,11,12,0,4,0,7,36,20,44,31,2,0,0,5,27,0,10,0,0,26,22,0,0,19,8,0,40,0,0,18,0,13,0,17,0
     |0,0,8,0,0,0,35,5,25,30,24,31,27,0,16,14,0,0,0,0,0,1,0,0,33,19,20,29,0,0,6,17,0,0,9,13,18,0,22,0,0,0,0,0,0,0,0,38,0,0,0,7,0,3,0,0,0,2,28,12,0,0,0,0,0,0,23,34,0,0,0,0,37,4,0,36,0,10,21,0,0,26,32,0,15,0,0,0,0,11
     |8,0,18,22,11,23,44,0,4,37,0,9,26,3,33,5,48,7,0,0,0,13,25,57,24,28,0,29,1,39,0,0,16,35,0,0,19,0,6,0,56,0,55,2,51,49,36,0,27,45,53,0,31,14,42,15,0,0,0,12,0,20,10,0,54,50,40,21,38,0,46,0,32,0,34,52,0,0,30,0,0,17,0,0,0,47,41,43,0,0
     |10,26,7,0,0,32,22,0,43,47,29,30,0,0,18,0,0,42,3,40,0,0,21,36,20,9,0,31,0,0,0,0,16,11,14,51,13,49,0,0,0,0,0,17,46,45,44,0,19,24,34,1,41,0,39,0,0,4,0,35,0,0,8,37,0,50,0,48,6,33,0,0,15,0,0,5,25,23,0,52,0,27,0,12,53,0,0,38,2,28|];
hosp_cap = [13,3,14,6,4,12,10,15,13];
